coords = array2d(1..76, 1..2, [879, 776, 998, 313, 45, 248, 512, 475, 101, 625,
    123, 15, 47, 176, 243, 899, 761, 793, 783, 256, 883, 820, 247, 9,
    272, 711, 74, 194, 19, 779, 41, 912, 918, 370, 994, 296, 851, 197,
    385, 601, 982, 366, 194, 563, 170, 439, 854, 455, 400, 131, 608,
    770, 574, 828, 747, 833, 320, 402, 489, 920, 318, 999, 761, 416,
    76, 326, 428, 465, 869, 217, 839, 74, 490, 974, 45, 856, 481, 134,
    134, 505, 648, 914, 644, 841, 606, 674, 156, 67, 876, 627, 936,
    758, 526, 167, 603, 445, 44, 474, 145, 941, 84, 365, 464, 523,
    639, 279, 861, 667, 823, 252, 325, 723, 209, 337, 130, 199, 18,
    423, 472, 103, 843, 286, 631, 465, 184, 397, 389, 200, 701, 761,
    769, 539, 386, 240, 533, 695, 636, 741, 245, 328, 23, 41, 754,
    665, 128, 213, 624, 516, 869, 990, 659, 212]);

n = 76;

